60
4
0 6 7 8 9 11 12 13 14 15 19 20 22 26 28 30 31 35 36 40 41 43 44 46 47 48 50 51 52 53 54 55 56 57 59
1 6 7 8 9 11 12 13 14 15 17 19 21 22 23 24 26 29 30 31 34 35 38 39 41 46 49 50 51 52 54 55 56 57 59
2 11 12 15 17 19 21 24 27 31 33 36 37 38 42 45 47 48 52 53 55 56 58
3 4 5 9 10 13 16 18 19 23 24 25 27 28 32 36 44 50 53 54 57
